Generated by pymatgen
1.0
4.2747494100 0.0000000000 0.0000000000
0.0000000000 4.2747494100 0.0000000000
0.0000000000 0.0000000000 4.2747494100
Mg Fe O
3 1 4
Direct
0.0000000000 0.0000000000 0.0000000000
0.5000000000 0.0000000000 0.5000000000
0.5000000000 0.5000000000 0.0000000000
0.0000000000 0.5000000000 0.5000000000
0.0000000000 0.5000000000 0.0000000000
0.0000000000 0.0000000000 0.5000000000
0.5000000000 0.5000000000 0.5000000000
0.5000000000 0.0000000000 0.0000000000
