Generated by pymatgen
1.0
9.5110193100 0.0000000000 0.0000000000
0.0000000000 9.5110193100 0.0000000000
0.0000000000 0.0000000000 9.5110193100
Mn O
32 48
Direct
0.4630193300 0.5000000000 0.7500000000
0.5000000000 0.2500000000 0.0369806700
0.0369806700 0.0000000000 0.7500000000
0.7500000000 0.0369806700 0.0000000000
0.4630193300 0.0000000000 0.2500000000
0.7500000000 0.4630193300 0.5000000000
0.2500000000 0.0369806700 0.5000000000
0.2500000000 0.4630193300 0.0000000000
0.2500000000 0.2500000000 0.7500000000
0.0369806700 0.5000000000 0.2500000000
0.5000000000 0.7500000000 0.4630193300
0.0000000000 0.7500000000 0.0369806700
0.0000000000 0.2500000000 0.4630193300
0.7500000000 0.2500000000 0.2500000000
0.2500000000 0.2500000000 0.2500000000
0.2500000000 0.7500000000 0.2500000000
0.9630193300 0.0000000000 0.2500000000
0.0000000000 0.7500000000 0.5369806700
0.5369806700 0.5000000000 0.2500000000
0.2500000000 0.5369806700 0.5000000000
0.9630193300 0.5000000000 0.7500000000
0.2500000000 0.9630193300 0.0000000000
0.7500000000 0.5369806700 0.0000000000
0.7500000000 0.9630193300 0.5000000000
0.7500000000 0.7500000000 0.2500000000
0.5369806700 0.0000000000 0.7500000000
0.0000000000 0.2500000000 0.9630193300
0.5000000000 0.2500000000 0.5369806700
0.5000000000 0.7500000000 0.9630193300
0.2500000000 0.7500000000 0.7500000000
0.7500000000 0.7500000000 0.7500000000
0.7500000000 0.2500000000 0.7500000000
0.8862912100 0.1604573500 0.1126442400
0.6126442400 0.1137087900 0.1604573500
0.1604573500 0.6126442400 0.1137087900
0.1126442400 0.8862912100 0.1604573500
0.1604573500 0.8873557600 0.6137087900
0.1604573500 0.1126442400 0.8862912100
0.3395426500 0.1126442400 0.1137087900
0.3873557600 0.3862912100 0.1604573500
0.3395426500 0.6126442400 0.8862912100
0.6126442400 0.8862912100 0.3395426500
0.3862912100 0.1604573500 0.3873557600
0.8862912100 0.3395426500 0.6126442400
0.3873557600 0.6137087900 0.3395426500
0.6137087900 0.1604573500 0.8873557600
0.8873557600 0.3862912100 0.3395426500
0.1604573500 0.3873557600 0.3862912100
0.1126442400 0.1137087900 0.3395426500
0.8873557600 0.6137087900 0.1604573500
0.1137087900 0.3395426500 0.1126442400
0.1137087900 0.1604573500 0.6126442400
0.3395426500 0.3873557600 0.6137087900
0.3862912100 0.3395426500 0.8873557600
0.6137087900 0.3395426500 0.3873557600
0.3395426500 0.8873557600 0.3862912100
0.3862912100 0.6604573500 0.6126442400
0.1126442400 0.6137087900 0.6604573500
0.6604573500 0.1126442400 0.6137087900
0.6126442400 0.3862912100 0.6604573500
0.6604573500 0.3873557600 0.1137087900
0.6604573500 0.6126442400 0.3862912100
0.8395426500 0.6126442400 0.6137087900
0.8873557600 0.8862912100 0.6604573500
0.8395426500 0.1126442400 0.3862912100
0.1126442400 0.3862912100 0.8395426500
0.8862912100 0.6604573500 0.8873557600
0.3862912100 0.8395426500 0.1126442400
0.8873557600 0.1137087900 0.8395426500
0.1137087900 0.6604573500 0.3873557600
0.3873557600 0.8862912100 0.8395426500
0.6604573500 0.8873557600 0.8862912100
0.6126442400 0.6137087900 0.8395426500
0.3873557600 0.1137087900 0.6604573500
0.6137087900 0.8395426500 0.6126442400
0.6137087900 0.6604573500 0.1126442400
0.8395426500 0.8873557600 0.1137087900
0.8862912100 0.8395426500 0.3873557600
0.1137087900 0.8395426500 0.8873557600
0.8395426500 0.3873557600 0.8862912100
