Generated by pymatgen
1.0
8.4631191500 0.0000000000 0.0000000000
0.0000000000 8.4631191500 0.0000000000
0.0000000000 0.0000000000 8.4631191500
Mg Mn O
24 4 32
Direct
0.0000000000 0.7500000000 0.7500000000
0.7500000000 0.0000000000 0.7500000000
0.2500000000 0.0000000000 0.7500000000
0.2500000000 0.7500000000 0.0000000000
0.0000000000 0.2500000000 0.7500000000
0.2500000000 0.2500000000 0.0000000000
0.0000000000 0.2500000000 0.2500000000
0.7500000000 0.5000000000 0.2500000000
0.2500000000 0.5000000000 0.2500000000
0.2500000000 0.2500000000 0.5000000000
0.0000000000 0.7500000000 0.2500000000
0.2500000000 0.7500000000 0.5000000000
0.5000000000 0.7500000000 0.2500000000
0.2500000000 0.0000000000 0.2500000000
0.7500000000 0.0000000000 0.2500000000
0.7500000000 0.7500000000 0.5000000000
0.5000000000 0.2500000000 0.2500000000
0.7500000000 0.2500000000 0.5000000000
0.5000000000 0.2500000000 0.7500000000
0.2500000000 0.5000000000 0.7500000000
0.7500000000 0.5000000000 0.7500000000
0.7500000000 0.2500000000 0.0000000000
0.5000000000 0.7500000000 0.7500000000
0.7500000000 0.7500000000 0.0000000000
0.5000000000 0.0000000000 0.0000000000
0.5000000000 0.5000000000 0.5000000000
0.0000000000 0.0000000000 0.5000000000
0.0000000000 0.5000000000 0.0000000000
0.2500000000 0.7500000000 0.7500000000
0.2687279700 0.0000000000 0.0000000000
0.5000000000 0.0000000000 0.7687279700
0.5000000000 0.7687279700 0.0000000000
0.5000000000 0.2312720300 0.0000000000
0.0000000000 0.0000000000 0.7312720300
0.7312720300 0.0000000000 0.0000000000
0.2500000000 0.2500000000 0.7500000000
0.2500000000 0.2500000000 0.2500000000
0.2687279700 0.5000000000 0.5000000000
0.5000000000 0.5000000000 0.2687279700
0.5000000000 0.2687279700 0.5000000000
0.5000000000 0.7312720300 0.5000000000
0.0000000000 0.5000000000 0.2312720300
0.7312720300 0.5000000000 0.5000000000
0.2500000000 0.7500000000 0.2500000000
0.7500000000 0.7500000000 0.2500000000
0.7687279700 0.0000000000 0.5000000000
0.0000000000 0.0000000000 0.2687279700
0.0000000000 0.7687279700 0.5000000000
0.0000000000 0.2312720300 0.5000000000
0.5000000000 0.0000000000 0.2312720300
0.2312720300 0.0000000000 0.5000000000
0.7500000000 0.2500000000 0.2500000000
0.7500000000 0.2500000000 0.7500000000
0.7687279700 0.5000000000 0.0000000000
0.0000000000 0.5000000000 0.7687279700
0.0000000000 0.2687279700 0.0000000000
0.0000000000 0.7312720300 0.0000000000
0.5000000000 0.5000000000 0.7312720300
0.2312720300 0.5000000000 0.0000000000
0.7500000000 0.7500000000 0.7500000000
