Generated by pymatgen
1.0
3.7708980000 0.0000000000 0.0000000000
0.0000000000 3.7708980000 0.0000000000
0.0000000000 0.0000000000 3.7708980000
Mg Mn O
1 1 3
Direct
0.0000000000 0.0000000000 0.0000000000
0.5000000000 0.5000000000 0.5000000000
0.5000000000 0.0000000000 0.5000000000
0.0000000000 0.5000000000 0.5000000000
0.5000000000 0.5000000000 0.0000000000
