Generated by pymatgen
1.0
-0.0163773917 -8.2019420161 -0.0148000328
-8.2380315739 0.0000000000 -0.0814707351
0.0000000000 0.0000000000 -8.2517646100
Mg Mn O
8 16 32
Direct
0.0001919000 0.5001267000 0.5000251000
0.7498081000 0.7498733000 0.7499749000
0.5001919000 0.5001267000 0.0000251000
0.2498081100 0.7498733000 0.2499749000
0.0001919000 0.0001267000 0.0000251000
0.7498081100 0.2498733000 0.2499749000
0.5001918900 0.0001267000 0.5000251000
0.2498081100 0.2498733000 0.7499749000
0.1250000000 0.6250000000 0.8750000000
0.3750000000 0.6250000000 0.6250000000
0.1250000000 0.8750000000 0.6250000000
0.3750000000 0.8750000000 0.8750000000
0.6250000000 0.6250000000 0.3750000000
0.8750000000 0.6250000000 0.1250000000
0.6250000000 0.8750000000 0.1250000000
0.8750000000 0.8750000000 0.3750000000
0.1250000000 0.1250000000 0.3750000000
0.3750000000 0.1250000000 0.1250000000
0.1250000000 0.3750000000 0.1250000000
0.3750000000 0.3750000000 0.3750000000
0.6250000000 0.1250000000 0.8750000000
0.8750000000 0.1250000000 0.6250000000
0.6250000000 0.3750000000 0.6250000000
0.8750000000 0.3750000000 0.8750000000
0.6106551200 0.8893286100 0.8889978300
0.8601945000 0.3600668900 0.6401377100
0.1388346500 0.6389007400 0.6398436400
0.8617111300 0.1405466400 0.8594382100
0.6111653600 0.6110992600 0.6101563700
0.8882888700 0.6094533600 0.8905617900
0.1393448800 0.8606713900 0.8610021700
0.8898055000 0.8899331200 0.6098622800
0.1106551200 0.8893286100 0.3889978300
0.3601945000 0.3600668900 0.1401377100
0.6388346500 0.6389007400 0.1398436400
0.3617111300 0.1405466300 0.3594382100
0.1111653600 0.6110992600 0.1101563700
0.3882888700 0.6094533600 0.3905617900
0.6393448800 0.8606713900 0.3610021700
0.3898055000 0.8899331100 0.1098622900
0.6106551200 0.3893286100 0.3889978300
0.8601945000 0.8600668800 0.1401377100
0.1388346500 0.1389007400 0.1398436400
0.8617111300 0.6405466300 0.3594382100
0.6111653600 0.1110992600 0.1101563600
0.8882888700 0.1094533700 0.3905617900
0.1393448800 0.3606713900 0.3610021700
0.8898055000 0.3899331100 0.1098622900
0.1106551200 0.3893286100 0.8889978300
0.3601945000 0.8600668900 0.6401377200
0.6388346500 0.1389007400 0.6398436400
0.3617111300 0.6405466300 0.8594382100
0.1111653600 0.1110992600 0.6101563700
0.3882888700 0.1094533700 0.8905617900
0.6393448800 0.3606713900 0.8610021700
0.3898055000 0.3899331100 0.6098622900
