Generated by pymatgen
1.0
9.4208299400 0.0000000000 0.0000000000
0.0000000000 9.4208299400 0.0000000000
0.0000000000 0.0000000000 9.4208299400
Mn O
32 48
Direct
0.4651799900 0.5000000000 0.7500000000
0.5000000000 0.2500000000 0.0348200100
0.0348200100 0.0000000000 0.7500000000
0.7500000000 0.0348200100 0.0000000000
0.4651799900 0.0000000000 0.2500000000
0.7500000000 0.4651799900 0.5000000000
0.2500000000 0.0348200100 0.5000000000
0.2500000000 0.4651799900 0.0000000000
0.2500000000 0.2500000000 0.7500000000
0.0348200100 0.5000000000 0.2500000000
0.5000000000 0.7500000000 0.4651799900
0.0000000000 0.7500000000 0.0348200100
0.0000000000 0.2500000000 0.4651799900
0.7500000000 0.2500000000 0.2500000000
0.2500000000 0.2500000000 0.2500000000
0.2500000000 0.7500000000 0.2500000000
0.9651799900 0.0000000000 0.2500000000
0.0000000000 0.7500000000 0.5348200100
0.5348200100 0.5000000000 0.2500000000
0.2500000000 0.5348200100 0.5000000000
0.9651799900 0.5000000000 0.7500000000
0.2500000000 0.9651799900 0.0000000000
0.7500000000 0.5348200100 0.0000000000
0.7500000000 0.9651799900 0.5000000000
0.7500000000 0.7500000000 0.2500000000
0.5348200100 0.0000000000 0.7500000000
0.0000000000 0.2500000000 0.9651799900
0.5000000000 0.2500000000 0.5348200100
0.5000000000 0.7500000000 0.9651799900
0.2500000000 0.7500000000 0.7500000000
0.7500000000 0.7500000000 0.7500000000
0.7500000000 0.2500000000 0.7500000000
0.8783956400 0.1667260400 0.1054147200
0.6054147200 0.1216043600 0.1667260400
0.1667260400 0.6054147200 0.1216043600
0.1054147200 0.8783956400 0.1667260400
0.1667260400 0.8945852800 0.6216043600
0.1667260400 0.1054147200 0.8783956400
0.3332739600 0.1054147200 0.1216043600
0.3945852800 0.3783956400 0.1667260400
0.3332739600 0.6054147200 0.8783956400
0.6054147200 0.8783956400 0.3332739600
0.3783956400 0.1667260400 0.3945852800
0.8783956400 0.3332739600 0.6054147200
0.3945852800 0.6216043600 0.3332739600
0.6216043600 0.1667260400 0.8945852800
0.8945852800 0.3783956400 0.3332739600
0.1667260400 0.3945852800 0.3783956400
0.1054147200 0.1216043600 0.3332739600
0.8945852800 0.6216043600 0.1667260400
0.1216043600 0.3332739600 0.1054147200
0.1216043600 0.1667260400 0.6054147200
0.3332739600 0.3945852800 0.6216043600
0.3783956400 0.3332739600 0.8945852800
0.6216043600 0.3332739600 0.3945852800
0.3332739600 0.8945852800 0.3783956400
0.3783956400 0.6666666667 0.6054147200
0.1054147200 0.6216043600 0.6666666667
0.6666666667 0.1054147200 0.6216043600
0.6054147200 0.3783956400 0.6666666667
0.6666666667 0.3945852800 0.1216043600
0.6666666667 0.6054147200 0.3783956400
0.8332739600 0.6054147200 0.6216043600
0.8945852800 0.8783956400 0.6666666667
0.8332739600 0.1054147200 0.3783956400
0.1054147200 0.3783956400 0.8332739600
0.8783956400 0.6666666667 0.8945852800
0.3783956400 0.8332739600 0.1054147200
0.8945852800 0.1216043600 0.8332739600
0.1216043600 0.6666666667 0.3945852800
0.3945852800 0.8783956400 0.8332739600
0.6666666667 0.8945852800 0.8783956400
0.6054147200 0.6216043600 0.8332739600
0.3945852800 0.1216043600 0.6666666667
0.6216043600 0.8332739600 0.6054147200
0.6216043600 0.6666666667 0.1054147200
0.8332739600 0.8945852800 0.1216043600
0.8783956400 0.8332739600 0.3945852800
0.1216043600 0.8332739600 0.8945852800
0.8332739600 0.3945852800 0.8783956400
