Generated by pymatgen
1.0
8.5495272000 0.0000000000 0.0000000000
0.0000000000 8.5495272000 0.0000000000
0.0000000000 0.0000000000 8.5495272000
Mg Mn O
8 16 32
Direct
0.5000000000 0.0000000000 0.5000000000
0.7500000000 0.7500000000 0.2500000000
0.5000000000 0.5000000000 0.0000000000
0.7500000000 0.2500000000 0.7500000000
0.0000000000 0.0000000000 0.0000000000
0.2500000000 0.7500000000 0.7500000000
0.0000000000 0.5000000000 0.5000000000
0.2500000000 0.2500000000 0.2500000000
0.8750000000 0.8750000000 0.6250000000
0.1250000000 0.6250000000 0.1250000000
0.1250000000 0.8750000000 0.3750000000
0.3750000000 0.6250000000 0.3750000000
0.8750000000 0.3750000000 0.1250000000
0.1250000000 0.1250000000 0.6250000000
0.1250000000 0.3750000000 0.8750000000
0.3750000000 0.1250000000 0.8750000000
0.3750000000 0.8750000000 0.1250000000
0.6250000000 0.6250000000 0.6250000000
0.6250000000 0.8750000000 0.8750000000
0.8750000000 0.6250000000 0.8750000000
0.3750000000 0.3750000000 0.6250000000
0.6250000000 0.1250000000 0.1250000000
0.6250000000 0.3750000000 0.3750000000
0.8750000000 0.1250000000 0.3750000000
0.1341278700 0.8658721300 0.1341278700
0.1158721300 0.1158721300 0.3841278700
0.8841278700 0.8841278700 0.3841278700
0.1341278700 0.6341278700 0.3658721300
0.8841278700 0.1158721300 0.6158721300
0.3658721300 0.8658721300 0.3658721300
0.1158721300 0.8841278700 0.6158721300
0.3658721300 0.6341278700 0.1341278700
0.1341278700 0.3658721300 0.6341278700
0.1158721300 0.6158721300 0.8841278700
0.8841278700 0.3841278700 0.8841278700
0.1341278700 0.1341278700 0.8658721300
0.8841278700 0.6158721300 0.1158721300
0.3658721300 0.3658721300 0.8658721300
0.1158721300 0.3841278700 0.1158721300
0.3658721300 0.1341278700 0.6341278700
0.6341278700 0.8658721300 0.6341278700
0.6158721300 0.1158721300 0.8841278700
0.3841278700 0.8841278700 0.8841278700
0.6341278700 0.6341278700 0.8658721300
0.3841278700 0.1158721300 0.1158721300
0.8658721300 0.8658721300 0.8658721300
0.6158721300 0.8841278700 0.1158721300
0.8658721300 0.6341278700 0.6341278700
0.6341278700 0.3658721300 0.1341278700
0.6158721300 0.6158721300 0.3841278700
0.3841278700 0.3841278700 0.3841278700
0.6341278700 0.1341278700 0.3658721300
0.3841278700 0.6158721300 0.6158721300
0.8658721300 0.3658721300 0.3658721300
0.6158721300 0.3841278700 0.6158721300
0.8658721300 0.1341278700 0.1341278700
