Generated by pymatgen
1.0
4.3365451400 0.0000000000 0.0000000000
0.0000000000 4.3365451400 0.0000000000
0.0000000000 0.0000000000 4.3365451400
Mg Mn O
3 1 4
Direct
0.0000000000 0.5000000000 0.5000000000
0.5000000000 0.0000000000 0.5000000000
0.5000000000 0.5000000000 0.0000000000
0.0000000000 0.0000000000 0.0000000000
0.5000000000 0.0000000000 0.0000000000
0.5000000000 0.5000000000 0.5000000000
0.0000000000 0.0000000000 0.5000000000
0.0000000000 0.5000000000 0.0000000000
