Generated by pymatgen
1.0
0.0097957765 -8.2826228625 -0.0110153436
8.3156316271 -0.0000000000 -0.0543855174
-0.0000000000 -0.0000000000 8.3069224200
Mn Fe O
8 16 32
Direct
0.9998720700 0.4999832700 0.5000844700
0.2501279300 0.7500167300 0.2499155300
0.4998720700 0.4999832700 0.0000844700
0.7501279300 0.7500167300 0.7499155300
0.9998720700 0.9999832700 0.0000844700
0.2501279300 0.2500167300 0.7499155300
0.4998720700 0.9999832700 0.5000844700
0.7501279300 0.2500167300 0.2499155300
0.1250000000 0.8750000000 0.6250000000
0.3750000000 0.1250000000 0.1250000000
0.1250000000 0.1250000000 0.3750000000
0.3750000000 0.3750000000 0.3750000000
0.6250000000 0.8750000000 0.1250000000
0.8750000000 0.1250000000 0.6250000000
0.6250000000 0.1250000000 0.8750000000
0.8750000000 0.3750000000 0.8750000000
0.1250000000 0.3750000000 0.1250000000
0.3750000000 0.6250000000 0.6250000000
0.1250000000 0.6250000000 0.8750000000
0.3750000000 0.8750000000 0.8750000000
0.6250000000 0.3750000000 0.6250000000
0.8750000000 0.6250000000 0.1250000000
0.6250000000 0.6250000000 0.3750000000
0.8750000000 0.8750000000 0.3750000000
0.1359760100 0.1374912900 0.1374811800
0.8866800100 0.1135513500 0.3866691700
0.1130129100 0.8872085700 0.3870721700
0.3633199900 0.1364486500 0.3633308300
0.8863398600 0.8870125200 0.6136160800
0.1369870900 0.3627914300 0.3629278300
0.1140239900 0.1125087100 0.6125188200
0.3636601400 0.3629874800 0.1363839200
0.6359760100 0.1374912900 0.6374811800
0.3866800100 0.1135513500 0.8866691700
0.6130129100 0.8872085700 0.8870721700
0.8633199900 0.1364486500 0.8633308300
0.3863398600 0.8870125200 0.1136160800
0.6369870900 0.3627914300 0.8629278300
0.6140239900 0.1125087100 0.1125188200
0.8636601400 0.3629874800 0.6363839200
0.1359760100 0.6374912900 0.6374811800
0.8866800100 0.6135513500 0.8866691700
0.1130129100 0.3872085700 0.8870721700
0.3633199900 0.6364486500 0.8633308300
0.8863398600 0.3870125200 0.1136160800
0.1369870900 0.8627914300 0.8629278300
0.1140239900 0.6125087100 0.1125188200
0.3636601400 0.8629874800 0.6363839200
0.6359760100 0.6374912900 0.1374811800
0.3866800100 0.6135513500 0.3866691700
0.6130129100 0.3872085700 0.3870721700
0.8633199900 0.6364486500 0.3633308300
0.3863398600 0.3870125200 0.6136160800
0.6369870900 0.8627914300 0.3629278300
0.6140239900 0.6125087100 0.6125188200
0.8636601400 0.8629874800 0.1363839200
