Generated by pymatgen
1.0
8.5687025800 0.0000000000 0.0000000000
0.0000000000 8.5687025800 0.0000000000
0.0000000000 0.0000000000 8.5687025800
Mg Mn O
24 4 32
Direct
0.0000000000 0.7500000000 0.7500000000
0.7500000000 0.0000000000 0.7500000000
0.2500000000 0.0000000000 0.7500000000
0.2500000000 0.7500000000 0.0000000000
0.0000000000 0.2500000000 0.7500000000
0.2500000000 0.2500000000 0.0000000000
0.0000000000 0.2500000000 0.2500000000
0.7500000000 0.5000000000 0.2500000000
0.2500000000 0.5000000000 0.2500000000
0.2500000000 0.2500000000 0.5000000000
0.0000000000 0.7500000000 0.2500000000
0.2500000000 0.7500000000 0.5000000000
0.5000000000 0.7500000000 0.2500000000
0.2500000000 0.0000000000 0.2500000000
0.7500000000 0.0000000000 0.2500000000
0.7500000000 0.7500000000 0.5000000000
0.5000000000 0.2500000000 0.2500000000
0.7500000000 0.2500000000 0.5000000000
0.5000000000 0.2500000000 0.7500000000
0.2500000000 0.5000000000 0.7500000000
0.7500000000 0.5000000000 0.7500000000
0.7500000000 0.2500000000 0.0000000000
0.5000000000 0.7500000000 0.7500000000
0.7500000000 0.7500000000 0.0000000000
0.5000000000 0.0000000000 0.0000000000
0.5000000000 0.5000000000 0.5000000000
0.0000000000 0.0000000000 0.5000000000
0.0000000000 0.5000000000 0.0000000000
0.2500000000 0.7500000000 0.7500000000
0.2661229900 0.0000000000 0.0000000000
0.5000000000 0.0000000000 0.7661229900
0.5000000000 0.7661229900 0.0000000000
0.5000000000 0.2338770100 0.0000000000
0.0000000000 0.0000000000 0.7338770100
0.7338770100 0.0000000000 0.0000000000
0.2500000000 0.2500000000 0.7500000000
0.2500000000 0.2500000000 0.2500000000
0.2661229900 0.5000000000 0.5000000000
0.5000000000 0.5000000000 0.2661229900
0.5000000000 0.2661229900 0.5000000000
0.5000000000 0.7338770100 0.5000000000
0.0000000000 0.5000000000 0.2338770100
0.7338770100 0.5000000000 0.5000000000
0.2500000000 0.7500000000 0.2500000000
0.7500000000 0.7500000000 0.2500000000
0.7661229900 0.0000000000 0.5000000000
0.0000000000 0.0000000000 0.2661229900
0.0000000000 0.7661229900 0.5000000000
0.0000000000 0.2338770100 0.5000000000
0.5000000000 0.0000000000 0.2338770100
0.2338770100 0.0000000000 0.5000000000
0.7500000000 0.2500000000 0.2500000000
0.7500000000 0.2500000000 0.7500000000
0.7661229900 0.5000000000 0.0000000000
0.0000000000 0.5000000000 0.7661229900
0.0000000000 0.2661229900 0.0000000000
0.0000000000 0.7338770100 0.0000000000
0.5000000000 0.5000000000 0.7338770100
0.2338770100 0.5000000000 0.0000000000
0.7500000000 0.7500000000 0.7500000000
