Generated by pymatgen
1.0
9.4659246300 0.0000000000 0.0000000000
0.0000000000 9.4659246300 0.0000000000
0.0000000000 0.0000000000 9.4659246300
Mn O
32 48
Direct
0.4640996600 0.5000000000 0.7500000000
0.5000000000 0.2500000000 0.0359003400
0.0359003400 0.0000000000 0.7500000000
0.7500000000 0.0359003400 0.0000000000
0.4640996600 0.0000000000 0.2500000000
0.7500000000 0.4640996600 0.5000000000
0.2500000000 0.0359003400 0.5000000000
0.2500000000 0.4640996600 0.0000000000
0.2500000000 0.2500000000 0.7500000000
0.0359003400 0.5000000000 0.2500000000
0.5000000000 0.7500000000 0.4640996600
0.0000000000 0.7500000000 0.0359003400
0.0000000000 0.2500000000 0.4640996600
0.7500000000 0.2500000000 0.2500000000
0.2500000000 0.2500000000 0.2500000000
0.2500000000 0.7500000000 0.2500000000
0.9640996600 0.0000000000 0.2500000000
0.0000000000 0.7500000000 0.5359003400
0.5359003400 0.5000000000 0.2500000000
0.2500000000 0.5359003400 0.5000000000
0.9640996600 0.5000000000 0.7500000000
0.2500000000 0.9640996600 0.0000000000
0.7500000000 0.5359003400 0.0000000000
0.7500000000 0.9640996600 0.5000000000
0.7500000000 0.7500000000 0.2500000000
0.5359003400 0.0000000000 0.7500000000
0.0000000000 0.2500000000 0.9640996600
0.5000000000 0.2500000000 0.5359003400
0.5000000000 0.7500000000 0.9640996600
0.2500000000 0.7500000000 0.7500000000
0.7500000000 0.7500000000 0.7500000000
0.7500000000 0.2500000000 0.7500000000
0.8823434300 0.1635916900 0.1090294800
0.6090294800 0.1176565700 0.1635916900
0.1635916900 0.6090294800 0.1176565700
0.1090294800 0.8823434300 0.1635916900
0.1635916900 0.8909705200 0.6176565700
0.1635916900 0.1090294800 0.8823434300
0.3364083100 0.1090294800 0.1176565700
0.3909705200 0.3823434300 0.1635916900
0.3364083100 0.6090294800 0.8823434300
0.6090294800 0.8823434300 0.3364083100
0.3823434300 0.1635916900 0.3909705200
0.8823434300 0.3364083100 0.6090294800
0.3909705200 0.6176565700 0.3364083100
0.6176565700 0.1635916900 0.8909705200
0.8909705200 0.3823434300 0.3364083100
0.1635916900 0.3909705200 0.3823434300
0.1090294800 0.1176565700 0.3364083100
0.8909705200 0.6176565700 0.1635916900
0.1176565700 0.3364083100 0.1090294800
0.1176565700 0.1635916900 0.6090294800
0.3364083100 0.3909705200 0.6176565700
0.3823434300 0.3364083100 0.8909705200
0.6176565700 0.3364083100 0.3909705200
0.3364083100 0.8909705200 0.3823434300
0.3823434300 0.6635916900 0.6090294800
0.1090294800 0.6176565700 0.6635916900
0.6635916900 0.1090294800 0.6176565700
0.6090294800 0.3823434300 0.6635916900
0.6635916900 0.3909705200 0.1176565700
0.6635916900 0.6090294800 0.3823434300
0.8364083100 0.6090294800 0.6176565700
0.8909705200 0.8823434300 0.6635916900
0.8364083100 0.1090294800 0.3823434300
0.1090294800 0.3823434300 0.8364083100
0.8823434300 0.6635916900 0.8909705200
0.3823434300 0.8364083100 0.1090294800
0.8909705200 0.1176565700 0.8364083100
0.1176565700 0.6635916900 0.3909705200
0.3909705200 0.8823434300 0.8364083100
0.6635916900 0.8909705200 0.8823434300
0.6090294800 0.6176565700 0.8364083100
0.3909705200 0.1176565700 0.6635916900
0.6176565700 0.8364083100 0.6090294800
0.6176565700 0.6635916900 0.1090294800
0.8364083100 0.8909705200 0.1176565700
0.8823434300 0.8364083100 0.3909705200
0.1176565700 0.8364083100 0.8909705200
0.8364083100 0.3909705200 0.8823434300
