Generated by pymatgen
1.0
-5.8539757079 0.0000000000 -0.0221941333
-0.0170633498 5.8617058384 -0.0320458569
0.0000000000 0.0000000000 -8.3320764500
Mg Fe O
4 8 16
Direct
0.4999565400 0.5002124000 0.5000167300
0.5000434600 0.9997876000 0.2499832700
0.9999565400 0.0002124000 0.0000167300
0.0000434600 0.4997876000 0.7499832700
0.0000000000 0.2500000000 0.3750000000
0.0000000000 0.7500000000 0.3750000000
0.7500000000 0.0000000000 0.6250000000
0.7500000000 0.5000000000 0.1250000000
0.5000000000 0.7500000000 0.8750000000
0.5000000000 0.2500000000 0.8750000000
0.2500000000 0.5000000000 0.1250000000
0.2500000000 0.0000000000 0.6250000000
0.7759589400 0.9999891500 0.3878474300
0.7760669500 0.5015051800 0.3611099300
0.0000440600 0.2753335300 0.1384113000
0.9999149200 0.7233309800 0.1386073500
0.9999559400 0.2246664700 0.6115887000
0.0000850800 0.7766690200 0.6113926500
0.2240410600 0.5000108500 0.3621525700
0.2239330500 0.9984948200 0.3888900700
0.2759589400 0.4999891500 0.8878474300
0.2760669500 0.0015051800 0.8611099300
0.5000440600 0.7753335300 0.6384113000
0.4999149200 0.2233309800 0.6386073500
0.4999559400 0.7246664700 0.1115887000
0.5000850800 0.2766690200 0.1113926500
0.7240410600 0.0000108500 0.8621525700
0.7239330500 0.4984948200 0.8888900700
