Generated by pymatgen
1.0
-5.8066223030 0.0000000000 -0.0333353508
-0.0255330475 5.8181722309 -0.0481353834
0.0000000000 0.0000000000 -8.2517646100
Mg Fe O
4 8 16
Direct
0.4999348100 0.5003185900 0.5000251000
0.5000652000 0.9996814100 0.2499749000
0.9999348100 0.0003185900 0.0000251000
0.0000652000 0.4996814000 0.7499749000
0.0000000000 0.2500000000 0.3750000000
0.0000000000 0.7500000000 0.3750000000
0.7500000000 0.0000000000 0.6250000000
0.7500000000 0.5000000000 0.1250000000
0.5000000000 0.7500000000 0.8750000000
0.5000000000 0.2500000000 0.8750000000
0.2500000000 0.5000000000 0.1250000000
0.2500000000 0.0000000000 0.6250000000
0.7786734900 0.9999837300 0.3889978300
0.7788355100 0.5022577600 0.3594382100
0.0000660900 0.2777353900 0.1398436400
0.9998723900 0.7202613900 0.1401377100
0.9999339100 0.2222646100 0.6101563700
0.0001276200 0.7797386200 0.6098622900
0.2213265100 0.5000162700 0.3610021700
0.2211645000 0.9977422400 0.3905617900
0.2786734900 0.4999837300 0.8889978300
0.2788355100 0.0022577600 0.8594382100
0.5000661000 0.7777353900 0.6398436400
0.4998723900 0.2202613900 0.6401377200
0.4999339100 0.7222646100 0.1101563700
0.5001276100 0.2797386200 0.1098622900
0.7213265100 0.0000162700 0.8610021700
0.7211645000 0.4977422400 0.8905617900
