Generated by pymatgen
1.0
8.6023060000 0.0000000000 0.0000000000
0.0000000000 8.6023060000 0.0000000000
0.0000000000 0.0000000000 8.6023060000
Mg Mn O
8 16 32
Direct
0.5000000000 0.0000000000 0.5000000000
0.2500000000 0.2500000000 0.2500000000
0.5000000000 0.5000000000 0.0000000000
0.2500000000 0.7500000000 0.7500000000
0.0000000000 0.0000000000 0.0000000000
0.7500000000 0.2500000000 0.7500000000
0.0000000000 0.5000000000 0.5000000000
0.7500000000 0.7500000000 0.2500000000
0.3750000000 0.8750000000 0.1250000000
0.3750000000 0.6250000000 0.3750000000
0.1250000000 0.8750000000 0.3750000000
0.1250000000 0.6250000000 0.1250000000
0.3750000000 0.3750000000 0.6250000000
0.3750000000 0.1250000000 0.8750000000
0.1250000000 0.3750000000 0.8750000000
0.1250000000 0.1250000000 0.6250000000
0.8750000000 0.8750000000 0.6250000000
0.8750000000 0.6250000000 0.8750000000
0.6250000000 0.8750000000 0.8750000000
0.6250000000 0.6250000000 0.6250000000
0.8750000000 0.3750000000 0.1250000000
0.8750000000 0.1250000000 0.3750000000
0.6250000000 0.3750000000 0.3750000000
0.6250000000 0.1250000000 0.1250000000
0.1144833300 0.3855166700 0.1144833300
0.6355166700 0.1355166700 0.3644833300
0.3644833300 0.8644833300 0.3644833300
0.8644833300 0.1355166700 0.1355166700
0.3855166700 0.3855166700 0.3855166700
0.3855166700 0.1144833300 0.1144833300
0.1355166700 0.8644833300 0.1355166700
0.1144833300 0.1144833300 0.3855166700
0.1144833300 0.8855166700 0.6144833300
0.6355166700 0.6355166700 0.8644833300
0.3644833300 0.3644833300 0.8644833300
0.8644833300 0.6355166700 0.6355166700
0.3855166700 0.8855166700 0.8855166700
0.3855166700 0.6144833300 0.6144833300
0.1355166700 0.3644833300 0.6355166700
0.1144833300 0.6144833300 0.8855166700
0.6144833300 0.3855166700 0.6144833300
0.1355166700 0.1355166700 0.8644833300
0.8644833300 0.8644833300 0.8644833300
0.3644833300 0.1355166700 0.6355166700
0.8855166700 0.3855166700 0.8855166700
0.8855166700 0.1144833300 0.6144833300
0.6355166700 0.8644833300 0.6355166700
0.6144833300 0.1144833300 0.8855166700
0.6144833300 0.8855166700 0.1144833300
0.1355166700 0.6355166700 0.3644833300
0.8644833300 0.3644833300 0.3644833300
0.3644833300 0.6355166700 0.1355166700
0.8855166700 0.8855166700 0.3855166700
0.8855166700 0.6144833300 0.1144833300
0.6355166700 0.3644833300 0.1355166700
0.6144833300 0.6144833300 0.3855166700
