Generated by pymatgen
1.0
0.0146373513 -8.2019420161 -0.0165229499
8.2513611120 -0.0000000000 -0.0816025587
-0.0000000000 -0.0000000000 8.2384344200
Mn Fe O
8 16 32
Direct
0.9998081100 0.4999749000 0.5001267000
0.2501919000 0.7500251000 0.2498733000
0.4998081100 0.4999749000 0.0001267000
0.7501918900 0.7500251000 0.7498733000
0.9998081100 0.9999749000 0.0001267000
0.2501919000 0.2500250900 0.7498733000
0.4998081100 0.9999749000 0.5001267000
0.7501919000 0.2500251000 0.2498733000
0.1250000000 0.8750000000 0.6250000000
0.3750000000 0.1250000000 0.1250000000
0.1250000000 0.1250000000 0.3750000000
0.3750000000 0.3750000000 0.3750000000
0.6250000000 0.8750000000 0.1250000000
0.8750000000 0.1250000000 0.6250000000
0.6250000000 0.1250000000 0.8750000000
0.8750000000 0.3750000000 0.8750000000
0.1250000000 0.3750000000 0.1250000000
0.3750000000 0.6250000000 0.6250000000
0.1250000000 0.6250000000 0.8750000000
0.3750000000 0.8750000000 0.8750000000
0.6250000000 0.3750000000 0.6250000000
0.8750000000 0.6250000000 0.1250000000
0.6250000000 0.6250000000 0.3750000000
0.8750000000 0.8750000000 0.3750000000
0.1382888700 0.1405617900 0.1405466300
0.8893448800 0.1110021700 0.3893286100
0.1101945000 0.8901377100 0.3899331200
0.3606551200 0.1389978300 0.3606713900
0.8888346500 0.8898436400 0.6110992600
0.1398055000 0.3598622900 0.3600668900
0.1117111300 0.1094382100 0.6094533700
0.3611653600 0.3601563600 0.1389007400
0.6382888700 0.1405617900 0.6405466300
0.3893448800 0.1110021700 0.8893286100
0.6101945000 0.8901377100 0.8899331100
0.8606551200 0.1389978300 0.8606713900
0.3888346500 0.8898436400 0.1110992600
0.6398055000 0.3598622900 0.8600668900
0.6117111300 0.1094382100 0.1094533700
0.8611653600 0.3601563600 0.6389007400
0.1382888700 0.6405617900 0.6405466300
0.8893448800 0.6110021700 0.8893286100
0.1101945000 0.3901377100 0.8899331200
0.3606551200 0.6389978300 0.8606713900
0.8888346500 0.3898436400 0.1110992600
0.1398055000 0.8598622900 0.8600668900
0.1117111300 0.6094382100 0.1094533600
0.3611653600 0.8601563700 0.6389007400
0.6382888700 0.6405617900 0.1405466300
0.3893448800 0.6110021700 0.3893286100
0.6101945000 0.3901377100 0.3899331100
0.8606551200 0.6389978300 0.3606713900
0.3888346500 0.3898436400 0.6110992600
0.6398055000 0.8598622900 0.3600668900
0.6117111300 0.6094382100 0.6094533700
0.8611653600 0.8601563600 0.1389007400
