Generated by pymatgen
1.0
-0.0109514472 -8.3354017250 -0.0098676197
-8.3595243977 0.0000000000 -0.0543275629
0.0000000000 0.0000000000 -8.3685879800
Mg Mn O
8 16 32
Direct
0.0001279300 0.5000844700 0.5000167300
0.7498720700 0.7499155300 0.7499832700
0.5001279300 0.5000844700 0.0000167300
0.2498720700 0.7499155300 0.2499832700
0.0001279300 0.0000844700 0.0000167300
0.7498720700 0.2499155300 0.2499832700
0.5001279300 0.0000844700 0.5000167300
0.2498720700 0.2499155300 0.7499832700
0.1250000000 0.6250000000 0.8750000000
0.3750000000 0.6250000000 0.6250000000
0.1250000000 0.8750000000 0.6250000000
0.3750000000 0.8750000000 0.8750000000
0.6250000000 0.6250000000 0.3750000000
0.8750000000 0.6250000000 0.1250000000
0.6250000000 0.8750000000 0.1250000000
0.8750000000 0.8750000000 0.3750000000
0.1250000000 0.1250000000 0.3750000000
0.3750000000 0.1250000000 0.1250000000
0.1250000000 0.3750000000 0.1250000000
0.3750000000 0.3750000000 0.3750000000
0.6250000000 0.1250000000 0.8750000000
0.8750000000 0.1250000000 0.6250000000
0.6250000000 0.3750000000 0.6250000000
0.8750000000 0.3750000000 0.8750000000
0.6119311900 0.8880579600 0.8878374400
0.8616241100 0.3615390300 0.6385973700
0.1377286500 0.6377727200 0.6384013100
0.8626352000 0.1388699800 0.8611199100
0.6122713500 0.6122272800 0.6115986900
0.8873648000 0.6111300200 0.8888800900
0.1380688100 0.8619420400 0.8621625600
0.8883758900 0.8884609700 0.6114026300
0.1119311900 0.8880579600 0.3878374400
0.3616241100 0.3615390300 0.1385973700
0.6377286500 0.6377727200 0.1384013100
0.3626352000 0.1388699800 0.3611199100
0.1122713500 0.6122272800 0.1115986900
0.3873648000 0.6111300200 0.3888800900
0.6380688100 0.8619420400 0.3621625600
0.3883758900 0.8884609700 0.1114026300
0.6119311900 0.3880579600 0.3878374400
0.8616241100 0.8615390300 0.1385973700
0.1377286500 0.1377727200 0.1384013100
0.8626352000 0.6388699800 0.3611199100
0.6122713500 0.1122272800 0.1115986900
0.8873648000 0.1111300200 0.3888800900
0.1380688100 0.3619420400 0.3621625600
0.8883758900 0.3884609700 0.1114026300
0.1119311900 0.3880579600 0.8878374400
0.3616241100 0.8615390300 0.6385973700
0.6377286500 0.1377727200 0.6384013100
0.3626352000 0.6388699800 0.8611199100
0.1122713500 0.1122272800 0.6115986900
0.3873648000 0.1111300200 0.8888800900
0.6380688100 0.3619420400 0.8621625600
0.3883758900 0.3884609700 0.6114026300
