Generated by pymatgen
1.0
0.0049164015 -8.3632986914 -0.0055076776
8.3798338756 -0.0000000000 -0.0271847198
-0.0000000000 -0.0000000000 8.3754343400
Mn Fe O
8 16 32
Direct
0.9999360400 0.4999916300 0.5000422300
0.2500639700 0.7500083700 0.2499577700
0.4999360400 0.4999916300 0.0000422300
0.7500639600 0.7500083700 0.7499577700
0.9999360400 0.9999916300 0.0000422300
0.2500639700 0.2500083600 0.7499577700
0.4999360400 0.9999916300 0.5000422300
0.7500639700 0.2500083700 0.2499577700
0.1250000000 0.8750000000 0.6250000000
0.3750000000 0.1250000000 0.1250000000
0.1250000000 0.1250000000 0.3750000000
0.3750000000 0.3750000000 0.3750000000
0.6250000000 0.8750000000 0.1250000000
0.8750000000 0.1250000000 0.6250000000
0.6250000000 0.1250000000 0.8750000000
0.8750000000 0.3750000000 0.8750000000
0.1250000000 0.3750000000 0.1250000000
0.3750000000 0.6250000000 0.6250000000
0.1250000000 0.6250000000 0.8750000000
0.3750000000 0.8750000000 0.8750000000
0.6250000000 0.3750000000 0.6250000000
0.8750000000 0.6250000000 0.1250000000
0.6250000000 0.6250000000 0.3750000000
0.8750000000 0.8750000000 0.3750000000
0.1336631400 0.1344207800 0.1344157300
0.8840151500 0.1161005400 0.3840097200
0.1158313100 0.8842794300 0.3842112200
0.3659848500 0.1338994600 0.3659902800
0.8838450700 0.8841814000 0.6161329000
0.1341686900 0.3657205700 0.3657887800
0.1163368600 0.1155792100 0.6155842700
0.3661549300 0.3658186000 0.1338671000
0.6336631400 0.1344207900 0.6344157300
0.3840151500 0.1161005400 0.8840097200
0.6158313100 0.8842794300 0.8842112300
0.8659848500 0.1338994600 0.8659902800
0.3838450700 0.8841814000 0.1161329000
0.6341686900 0.3657205700 0.8657887700
0.6163368600 0.1155792100 0.1155842700
0.8661549300 0.3658186000 0.6338671000
0.1336631400 0.6344207800 0.6344157300
0.8840151500 0.6161005400 0.8840097200
0.1158313100 0.3842794200 0.8842112300
0.3659848500 0.6338994600 0.8659902800
0.8838450700 0.3841814000 0.1161329000
0.1341686900 0.8657205700 0.8657887700
0.1163368600 0.6155792200 0.1155842700
0.3661549300 0.8658186000 0.6338671000
0.6336631400 0.6344207800 0.1344157300
0.3840151500 0.6161005400 0.3840097200
0.6158313100 0.3842794200 0.3842112200
0.8659848500 0.6338994600 0.3659902800
0.3838450700 0.3841814000 0.6161329000
0.6341686900 0.8657205700 0.3657887800
0.6163368600 0.6155792200 0.6155842700
0.8661549300 0.8658186000 0.1338671000
