Generated by pymatgen
1.0
4.2786070000 0.0000000000 0.0000000000
0.0000000000 4.2786070000 0.0000000000
0.0000000000 0.0000000000 4.2786070000
Mg O
4 4
Direct
0.0000000000 0.0000000000 0.0000000000
0.0000000000 0.5000000000 0.5000000000
0.5000000000 0.0000000000 0.5000000000
0.5000000000 0.5000000000 0.0000000000
0.0000000000 0.0000000000 0.5000000000
0.0000000000 0.5000000000 0.0000000000
0.5000000000 0.0000000000 0.0000000000
0.5000000000 0.5000000000 0.5000000000
