Generated by pymatgen
1.0
8.3575357300 0.0000000000 0.0000000000
0.0000000000 8.3575357300 0.0000000000
0.0000000000 0.0000000000 8.3575357300
Mg Mn O
24 4 32
Direct
0.0000000000 0.7500000000 0.7500000000
0.7500000000 0.0000000000 0.7500000000
0.2500000000 0.0000000000 0.7500000000
0.2500000000 0.7500000000 0.0000000000
0.0000000000 0.2500000000 0.7500000000
0.2500000000 0.2500000000 0.0000000000
0.0000000000 0.2500000000 0.2500000000
0.7500000000 0.5000000000 0.2500000000
0.2500000000 0.5000000000 0.2500000000
0.2500000000 0.2500000000 0.5000000000
0.0000000000 0.7500000000 0.2500000000
0.2500000000 0.7500000000 0.5000000000
0.5000000000 0.7500000000 0.2500000000
0.2500000000 0.0000000000 0.2500000000
0.7500000000 0.0000000000 0.2500000000
0.7500000000 0.7500000000 0.5000000000
0.5000000000 0.2500000000 0.2500000000
0.7500000000 0.2500000000 0.5000000000
0.5000000000 0.2500000000 0.7500000000
0.2500000000 0.5000000000 0.7500000000
0.7500000000 0.5000000000 0.7500000000
0.7500000000 0.2500000000 0.0000000000
0.5000000000 0.7500000000 0.7500000000
0.7500000000 0.7500000000 0.0000000000
0.5000000000 0.0000000000 0.0000000000
0.5000000000 0.5000000000 0.5000000000
0.0000000000 0.0000000000 0.5000000000
0.0000000000 0.5000000000 0.0000000000
0.2500000000 0.7500000000 0.7500000000
0.2713329600 0.0000000000 0.0000000000
0.5000000000 0.0000000000 0.7713329600
0.5000000000 0.7713329600 0.0000000000
0.5000000000 0.2286670400 0.0000000000
0.0000000000 0.0000000000 0.7286670400
0.7286670400 0.0000000000 0.0000000000
0.2500000000 0.2500000000 0.7500000000
0.2500000000 0.2500000000 0.2500000000
0.2713329600 0.5000000000 0.5000000000
0.5000000000 0.5000000000 0.2713329600
0.5000000000 0.2713329600 0.5000000000
0.5000000000 0.7286670400 0.5000000000
0.0000000000 0.5000000000 0.2286670400
0.7286670400 0.5000000000 0.5000000000
0.2500000000 0.7500000000 0.2500000000
0.7500000000 0.7500000000 0.2500000000
0.7713329600 0.0000000000 0.5000000000
0.0000000000 0.0000000000 0.2713329600
0.0000000000 0.7713329600 0.5000000000
0.0000000000 0.2286670400 0.5000000000
0.5000000000 0.0000000000 0.2286670400
0.2286670400 0.0000000000 0.5000000000
0.7500000000 0.2500000000 0.2500000000
0.7500000000 0.2500000000 0.7500000000
0.7713329600 0.5000000000 0.0000000000
0.0000000000 0.5000000000 0.7713329600
0.0000000000 0.2713329600 0.0000000000
0.0000000000 0.7286670400 0.0000000000
0.5000000000 0.5000000000 0.7286670400
0.2286670400 0.5000000000 0.0000000000
0.7500000000 0.7500000000 0.7500000000
