Generated by pymatgen
1.0
8.4967483900 0.0000000000 0.0000000000
0.0000000000 8.4967483900 0.0000000000
0.0000000000 0.0000000000 8.4967483900
Mg Mn O
8 16 32
Direct
0.5000000000 0.0000000000 0.5000000000
0.7500000000 0.7500000000 0.2500000000
0.5000000000 0.5000000000 0.0000000000
0.7500000000 0.2500000000 0.7500000000
0.0000000000 0.0000000000 0.0000000000
0.2500000000 0.7500000000 0.7500000000
0.0000000000 0.5000000000 0.5000000000
0.2500000000 0.2500000000 0.2500000000
0.8750000000 0.8750000000 0.6250000000
0.1250000000 0.6250000000 0.1250000000
0.1250000000 0.8750000000 0.3750000000
0.3750000000 0.6250000000 0.3750000000
0.8750000000 0.3750000000 0.1250000000
0.1250000000 0.1250000000 0.6250000000
0.1250000000 0.3750000000 0.8750000000
0.3750000000 0.1250000000 0.8750000000
0.3750000000 0.8750000000 0.1250000000
0.6250000000 0.6250000000 0.6250000000
0.6250000000 0.8750000000 0.8750000000
0.8750000000 0.6250000000 0.8750000000
0.3750000000 0.3750000000 0.6250000000
0.6250000000 0.1250000000 0.1250000000
0.6250000000 0.3750000000 0.3750000000
0.8750000000 0.1250000000 0.3750000000
0.1327390800 0.8672609200 0.1327390800
0.1172609200 0.1172609200 0.3827390800
0.8827390800 0.8827390800 0.3827390800
0.1327390800 0.6327390800 0.3672609200
0.8827390800 0.1172609200 0.6172609200
0.3672609200 0.8672609200 0.3672609200
0.1172609200 0.8827390800 0.6172609200
0.3672609200 0.6327390800 0.1327390800
0.1327390800 0.3672609200 0.6327390800
0.1172609200 0.6172609200 0.8827390800
0.8827390800 0.3827390800 0.8827390800
0.1327390800 0.1327390800 0.8672609200
0.8827390800 0.6172609200 0.1172609200
0.3672609200 0.3672609200 0.8672609200
0.1172609200 0.3827390800 0.1172609200
0.3672609200 0.1327390800 0.6327390800
0.6327390800 0.8672609200 0.6327390800
0.6172609200 0.1172609200 0.8827390800
0.3827390800 0.8827390800 0.8827390800
0.6327390800 0.6327390800 0.8672609200
0.3827390800 0.1172609200 0.1172609200
0.8672609200 0.8672609200 0.8672609200
0.6172609200 0.8827390800 0.1172609200
0.8672609200 0.6327390800 0.6327390800
0.6327390800 0.3672609200 0.1327390800
0.6172609200 0.6172609200 0.3827390800
0.3827390800 0.3827390800 0.3827390800
0.6327390800 0.1327390800 0.3672609200
0.3827390800 0.6172609200 0.6172609200
0.8672609200 0.3672609200 0.3672609200
0.6172609200 0.3827390800 0.6172609200
0.8672609200 0.1327390800 0.1327390800
