Generated by pymatgen
1.0
4.3921802700 0.0000000000 0.0000000000
0.0000000000 4.3921802700 0.0000000000
0.0000000000 0.0000000000 4.3921802700
Mg Mn O
3 1 4
Direct
0.0000000000 0.5000000000 0.5000000000
0.5000000000 0.0000000000 0.5000000000
0.5000000000 0.5000000000 0.0000000000
0.0000000000 0.0000000000 0.0000000000
0.5000000000 0.0000000000 0.0000000000
0.5000000000 0.5000000000 0.5000000000
0.0000000000 0.0000000000 0.5000000000
0.0000000000 0.5000000000 0.0000000000
