Generated by pymatgen
1.0
-8.4335303000 0.0000000000 -0.0000000000
0.0000000000 0.0000000000 -8.4335303000
-0.0000000000 -8.4602368800 -0.0000000000
Mg Fe O
8 16 32
Direct
0.5000000000 0.5000000000 0.0000000000
0.2500000000 0.7500000000 0.2500000000
0.5000000000 0.0000000000 0.5000000000
0.2500000000 0.2500000000 0.7500000000
0.0000000000 0.0000000000 0.0000000000
0.7500000000 0.2500000000 0.2500000000
0.0000000000 0.5000000000 0.5000000000
0.7500000000 0.7500000000 0.7500000000
0.1250000000 0.3750000000 0.1250000000
0.8750000000 0.8750000000 0.3750000000
0.8750000000 0.6250000000 0.1250000000
0.6250000000 0.6250000000 0.3750000000
0.1250000000 0.8750000000 0.6250000000
0.8750000000 0.3750000000 0.8750000000
0.8750000000 0.1250000000 0.6250000000
0.6250000000 0.1250000000 0.8750000000
0.6250000000 0.8750000000 0.1250000000
0.3750000000 0.3750000000 0.3750000000
0.3750000000 0.1250000000 0.1250000000
0.1250000000 0.1250000000 0.3750000000
0.6250000000 0.3750000000 0.6250000000
0.3750000000 0.8750000000 0.8750000000
0.3750000000 0.6250000000 0.6250000000
0.1250000000 0.6250000000 0.8750000000
0.8673448400 0.8673448400 0.1327490600
0.8826551600 0.6173448400 0.8827490600
0.1173448400 0.6173448400 0.1172509400
0.8673448400 0.6326551600 0.3672509400
0.1173448400 0.3826551600 0.8827490600
0.6326551600 0.6326551600 0.1327490600
0.8826551600 0.3826551600 0.1172509400
0.6326551600 0.8673448400 0.3672509400
0.8673448400 0.3673448400 0.6327490600
0.8826551600 0.1173448400 0.3827490600
0.1173448400 0.1173448400 0.6172509400
0.8673448400 0.1326551600 0.8672509400
0.1173448400 0.8826551600 0.3827490600
0.6326551600 0.1326551600 0.6327490600
0.8826551600 0.8826551600 0.6172509400
0.6326551600 0.3673448400 0.8672509400
0.3673448400 0.3673448400 0.1327490600
0.3826551600 0.1173448400 0.8827490600
0.6173448400 0.1173448400 0.1172509400
0.3673448400 0.1326551600 0.3672509400
0.6173448400 0.8826551600 0.8827490600
0.1326551600 0.1326551600 0.1327490600
0.3826551600 0.8826551600 0.1172509400
0.1326551600 0.3673448400 0.3672509400
0.3673448400 0.8673448400 0.6327490600
0.3826551600 0.6173448400 0.3827490600
0.6173448400 0.6173448400 0.6172509400
0.3673448400 0.6326551600 0.8672509400
0.6173448400 0.3826551600 0.3827490600
0.1326551600 0.6326551600 0.6327490600
0.3826551600 0.3826551600 0.6172509400
0.1326551600 0.8673448400 0.8672509400
