Generated by pymatgen
1.0
4.2168112700 0.0000000000 0.0000000000
0.0000000000 4.2168112700 0.0000000000
0.0000000000 0.0000000000 4.2168112700
Mg O
4 4
Direct
0.0000000000 0.0000000000 0.0000000000
0.0000000000 0.5000000000 0.5000000000
0.5000000000 0.0000000000 0.5000000000
0.5000000000 0.5000000000 0.0000000000
0.0000000000 0.5000000000 0.0000000000
0.0000000000 0.0000000000 0.5000000000
0.5000000000 0.5000000000 0.5000000000
0.5000000000 0.0000000000 0.0000000000
