Generated by pymatgen
1.0
8.4758698100 0.0000000000 0.0000000000
0.0000000000 8.4758698100 0.0000000000
0.0000000000 0.0000000000 8.5292829800
Mg Mn O
8 16 32
Direct
0.5000000000 0.0000000000 0.5000000000
0.2500000000 0.2500000000 0.2500000000
0.5000000000 0.5000000000 0.0000000000
0.2500000000 0.7500000000 0.7500000000
0.0000000000 0.0000000000 0.0000000000
0.7500000000 0.2500000000 0.7500000000
0.0000000000 0.5000000000 0.5000000000
0.7500000000 0.7500000000 0.2500000000
0.3750000000 0.8750000000 0.1250000000
0.3750000000 0.6250000000 0.3750000000
0.1250000000 0.8750000000 0.3750000000
0.1250000000 0.6250000000 0.1250000000
0.3750000000 0.3750000000 0.6250000000
0.3750000000 0.1250000000 0.8750000000
0.1250000000 0.3750000000 0.8750000000
0.1250000000 0.1250000000 0.6250000000
0.8750000000 0.8750000000 0.6250000000
0.8750000000 0.6250000000 0.8750000000
0.6250000000 0.8750000000 0.8750000000
0.6250000000 0.6250000000 0.6250000000
0.8750000000 0.3750000000 0.1250000000
0.8750000000 0.1250000000 0.3750000000
0.6250000000 0.3750000000 0.3750000000
0.6250000000 0.1250000000 0.1250000000
0.1146511700 0.3853488300 0.1144633600
0.6353488300 0.1353488300 0.3644633600
0.3646511700 0.8646511700 0.3644633600
0.8646511700 0.1353488300 0.1355366400
0.3853488300 0.3853488300 0.3855366400
0.3853488300 0.1146511700 0.1144633600
0.1353488300 0.8646511700 0.1355366400
0.1146511700 0.1146511700 0.3855366400
0.1146511700 0.8853488300 0.6144633600
0.6353488300 0.6353488300 0.8644633600
0.3646511700 0.3646511700 0.8644633600
0.8646511700 0.6353488300 0.6355366400
0.3853488300 0.8853488300 0.8855366400
0.3853488300 0.6146511700 0.6144633600
0.1353488300 0.3646511700 0.6355366400
0.1146511700 0.6146511700 0.8855366400
0.6146511700 0.3853488300 0.6144633600
0.1353488300 0.1353488300 0.8644633600
0.8646511700 0.8646511700 0.8644633600
0.3646511700 0.1353488300 0.6355366400
0.8853488300 0.3853488300 0.8855366400
0.8853488300 0.1146511700 0.6144633600
0.6353488300 0.8646511700 0.6355366400
0.6146511700 0.1146511700 0.8855366400
0.6146511700 0.8853488300 0.1144633600
0.1353488300 0.6353488300 0.3644633600
0.8646511700 0.3646511700 0.3644633600
0.3646511700 0.6353488300 0.1355366400
0.8853488300 0.8853488300 0.3855366400
0.8853488300 0.6146511700 0.1144633600
0.6353488300 0.3646511700 0.1355366400
0.6146511700 0.6146511700 0.3855366400
