Generated by pymatgen
1.0
-8.4230910100 0.0000000000 -0.0000000000
0.0000000000 0.0000000000 -8.4230910100
-0.0000000000 -8.4765041800 -0.0000000000
Mg Fe O
8 16 32
Direct
0.5000000000 0.5000000000 0.0000000000
0.2500000000 0.7500000000 0.2500000000
0.5000000000 1.0000000000 0.5000000000
0.2500000000 0.2500000000 0.7500000000
0.0000000000 0.0000000000 0.0000000000
0.7500000000 0.2500000000 0.2500000000
0.0000000000 0.5000000000 0.5000000000
0.7500000000 0.7500000000 0.7500000000
0.1250000000 0.3750000000 0.1250000000
0.8750000000 0.8750000000 0.3750000000
0.8750000000 0.6250000000 0.1250000000
0.6250000000 0.6250000000 0.3750000000
0.1250000000 0.8750000000 0.6250000000
0.8750000000 0.3750000000 0.8750000000
0.8750000000 0.1250000000 0.6250000000
0.6250000000 0.1250000000 0.8750000000
0.6250000000 0.8750000000 0.1250000000
0.3750000000 0.3750000000 0.3750000000
0.3750000000 0.1250000000 0.1250000000
0.1250000000 0.1250000000 0.3750000000
0.6250000000 0.3750000000 0.6250000000
0.3750000000 0.8750000000 0.8750000000
0.3750000000 0.6250000000 0.6250000000
0.1250000000 0.6250000000 0.8750000000
0.8660399600 0.8660399600 0.1341478500
0.8839600400 0.6160399600 0.8841478500
0.1160399600 0.6160399600 0.1158521500
0.8660399600 0.6339600400 0.3658521500
0.1160399600 0.3839600400 0.8841478500
0.6339600400 0.6339600400 0.1341478500
0.8839600400 0.3839600400 0.1158521500
0.6339600400 0.8660399600 0.3658521500
0.8660399600 0.3660399600 0.6341478500
0.8839600400 0.1160399600 0.3841478500
0.1160399600 0.1160399600 0.6158521500
0.8660399600 0.1339600400 0.8658521500
0.1160399600 0.8839600400 0.3841478500
0.6339600400 0.1339600400 0.6341478500
0.8839600400 0.8839600400 0.6158521500
0.6339600400 0.3660399600 0.8658521500
0.3660399600 0.3660399600 0.1341478500
0.3839600400 0.1160399600 0.8841478500
0.6160399600 0.1160399600 0.1158521500
0.3660399600 0.1339600400 0.3658521500
0.6160399600 0.8839600400 0.8841478500
0.1339600400 0.1339600400 0.1341478500
0.3839600400 0.8839600400 0.1158521500
0.1339600400 0.3660399600 0.3658521500
0.3660399600 0.8660399600 0.6341478500
0.3839600400 0.6160399600 0.3841478500
0.6160399600 0.6160399600 0.6158521500
0.3660399600 0.6339600400 0.8658521500
0.6160399600 0.3839600400 0.3841478500
0.1339600400 0.6339600400 0.6341478500
0.3839600400 0.3839600400 0.6158521500
0.1339600400 0.8660399600 0.8658521500
