Generated by pymatgen
1.0
-0.0054918970 -8.4688563319 -0.0049342483
-8.4809482873 0.0000000000 -0.0271703858
0.0000000000 0.0000000000 -8.4854354400
Mg Mn O
8 16 32
Direct
0.0000639700 0.5000422300 0.5000083700
0.7499360400 0.7499577700 0.7499916300
0.5000639600 0.5000422300 0.0000083700
0.2499360400 0.7499577700 0.2499916300
0.0000639700 0.0000422300 0.0000083700
0.7499360400 0.2499577700 0.2499916300
0.5000639600 0.0000422300 0.5000083700
0.2499360400 0.2499577700 0.7499916300
0.1250000000 0.6250000000 0.8750000000
0.3750000000 0.6250000000 0.6250000000
0.1250000000 0.8750000000 0.6250000000
0.3750000000 0.8750000000 0.8750000000
0.6250000000 0.6250000000 0.3750000000
0.8750000000 0.6250000000 0.1250000000
0.6250000000 0.8750000000 0.1250000000
0.8750000000 0.8750000000 0.3750000000
0.1250000000 0.1250000000 0.3750000000
0.3750000000 0.1250000000 0.1250000000
0.1250000000 0.3750000000 0.1250000000
0.3750000000 0.3750000000 0.3750000000
0.6250000000 0.1250000000 0.8750000000
0.8750000000 0.1250000000 0.6250000000
0.6250000000 0.3750000000 0.6250000000
0.8750000000 0.3750000000 0.8750000000
0.6132072600 0.8867873200 0.8866770600
0.8630537200 0.3630111800 0.6370570200
0.1366226600 0.6366446900 0.6369589900
0.8635592600 0.1371933300 0.8628016200
0.6133773400 0.6133553100 0.6130410100
0.8864407400 0.6128066700 0.8871983800
0.1367927400 0.8632126800 0.8633229400
0.8869462800 0.8869888200 0.6129429800
0.1132072600 0.8867873200 0.3866770600
0.3630537200 0.3630111800 0.1370570200
0.6366226600 0.6366446900 0.1369589900
0.3635592600 0.1371933300 0.3628016200
0.1133773400 0.6133553100 0.1130410100
0.3864407400 0.6128066700 0.3871983800
0.6367927400 0.8632126800 0.3633229400
0.3869462800 0.8869888200 0.1129429800
0.6132072600 0.3867873200 0.3866770600
0.8630537200 0.8630111800 0.1370570200
0.1366226600 0.1366446900 0.1369589900
0.8635592600 0.6371933200 0.3628016200
0.6133773400 0.1133553100 0.1130410100
0.8864407400 0.1128066700 0.3871983800
0.1367927400 0.3632126800 0.3633229400
0.8869462800 0.3869888200 0.1129429800
0.1132072600 0.3867873200 0.8866770600
0.3630537200 0.8630111800 0.6370570200
0.6366226600 0.1366446900 0.6369589900
0.3635592600 0.6371933200 0.8628016200
0.1133773400 0.1133553100 0.6130410100
0.3864407400 0.1128066700 0.8871983800
0.6367927400 0.3632126800 0.8633229400
0.3869462800 0.3869888200 0.6129429800
