Generated by pymatgen
1.0
8.5390879100 0.0000000000 0.0000000000
0.0000000000 8.5390879100 0.0000000000
0.0000000000 0.0000000000 8.5657944900
Mg Mn O
8 16 32
Direct
0.5000000000 0.0000000000 0.5000000000
0.2500000000 0.2500000000 0.2500000000
0.5000000000 0.5000000000 0.0000000000
0.2500000000 0.7500000000 0.7500000000
0.0000000000 0.0000000000 0.0000000000
0.7500000000 0.2500000000 0.7500000000
0.0000000000 0.5000000000 0.5000000000
0.7500000000 0.7500000000 0.2500000000
0.3750000000 0.8750000000 0.1250000000
0.3750000000 0.6250000000 0.3750000000
0.1250000000 0.8750000000 0.3750000000
0.1250000000 0.6250000000 0.1250000000
0.3750000000 0.3750000000 0.6250000000
0.3750000000 0.1250000000 0.8750000000
0.1250000000 0.3750000000 0.8750000000
0.1250000000 0.1250000000 0.6250000000
0.8750000000 0.8750000000 0.6250000000
0.8750000000 0.6250000000 0.8750000000
0.6250000000 0.8750000000 0.8750000000
0.6250000000 0.6250000000 0.6250000000
0.8750000000 0.3750000000 0.1250000000
0.8750000000 0.1250000000 0.3750000000
0.6250000000 0.3750000000 0.3750000000
0.6250000000 0.1250000000 0.1250000000
0.1145672500 0.3854327500 0.1144733400
0.6354327500 0.1354327500 0.3644733400
0.3645672500 0.8645672500 0.3644733400
0.8645672500 0.1354327500 0.1355266600
0.3854327500 0.3854327500 0.3855266600
0.3854327500 0.1145672500 0.1144733400
0.1354327500 0.8645672500 0.1355266600
0.1145672500 0.1145672500 0.3855266600
0.1145672500 0.8854327500 0.6144733400
0.6354327500 0.6354327500 0.8644733400
0.3645672500 0.3645672500 0.8644733400
0.8645672500 0.6354327500 0.6355266600
0.3854327500 0.8854327500 0.8855266600
0.3854327500 0.6145672500 0.6144733400
0.1354327500 0.3645672500 0.6355266600
0.1145672500 0.6145672500 0.8855266600
0.6145672500 0.3854327500 0.6144733400
0.1354327500 0.1354327500 0.8644733400
0.8645672500 0.8645672500 0.8644733400
0.3645672500 0.1354327500 0.6355266600
0.8854327500 0.3854327500 0.8855266600
0.8854327500 0.1145672500 0.6144733400
0.6354327500 0.8645672500 0.6355266600
0.6145672500 0.1145672500 0.8855266600
0.6145672500 0.8854327500 0.1144733400
0.1354327500 0.6354327500 0.3644733400
0.8645672500 0.3645672500 0.3644733400
0.3645672500 0.6354327500 0.1355266600
0.8854327500 0.8854327500 0.3855266600
0.8854327500 0.6145672500 0.1144733400
0.6354327500 0.3645672500 0.1355266600
0.6145672500 0.6145672500 0.3855266600
