Generated by pymatgen
1.0
-8.4126517200 0.0000000000 -0.0000000000
0.0000000000 0.0000000000 -8.4126517200
-0.0000000000 -8.4927714700 -0.0000000000
Mg Fe O
8 16 32
Direct
0.5000000000 0.5000000000 0.0000000000
0.2500000000 0.7500000000 0.2500000000
0.5000000000 0.0000000000 0.5000000000
0.2500000000 0.2500000000 0.7500000000
0.0000000000 0.0000000000 0.0000000000
0.7500000000 0.2500000000 0.2500000000
0.0000000000 0.5000000000 0.5000000000
0.7500000000 0.7500000000 0.7500000000
0.1250000000 0.3750000000 0.1250000000
0.8750000000 0.8750000000 0.3750000000
0.8750000000 0.6250000000 0.1250000000
0.6250000000 0.6250000000 0.3750000000
0.1250000000 0.8750000000 0.6250000000
0.8750000000 0.3750000000 0.8750000000
0.8750000000 0.1250000000 0.6250000000
0.6250000000 0.1250000000 0.8750000000
0.6250000000 0.8750000000 0.1250000000
0.3750000000 0.3750000000 0.3750000000
0.3750000000 0.1250000000 0.1250000000
0.1250000000 0.1250000000 0.3750000000
0.6250000000 0.3750000000 0.6250000000
0.3750000000 0.8750000000 0.8750000000
0.3750000000 0.6250000000 0.6250000000
0.1250000000 0.6250000000 0.8750000000
0.8647350800 0.8647350800 0.1355466300
0.8852649200 0.6147350800 0.8855466300
0.1147350800 0.6147350900 0.1144533700
0.8647350800 0.6352649200 0.3644533700
0.1147350800 0.3852649200 0.8855466300
0.6352649100 0.6352649100 0.1355466300
0.8852649200 0.3852649200 0.1144533700
0.6352649100 0.8647350900 0.3644533700
0.8647350800 0.3647350900 0.6355466300
0.8852649200 0.1147350900 0.3855466300
0.1147350900 0.1147350800 0.6144533700
0.8647350800 0.1352649200 0.8644533700
0.1147350800 0.8852649200 0.3855466300
0.6352649100 0.1352649200 0.6355466300
0.8852649200 0.8852649200 0.6144533700
0.6352649100 0.3647350900 0.8644533700
0.3647350800 0.3647350900 0.1355466300
0.3852649200 0.1147350900 0.8855466300
0.6147350800 0.1147350900 0.1144533700
0.3647350800 0.1352649200 0.3644533700
0.6147350900 0.8852649200 0.8855466300
0.1352649200 0.1352649100 0.1355466300
0.3852649200 0.8852649200 0.1144533700
0.1352649100 0.3647350900 0.3644533700
0.3647350900 0.8647350800 0.6355466300
0.3852649100 0.6147350900 0.3855466300
0.6147350900 0.6147350900 0.6144533700
0.3647350900 0.6352649100 0.8644533700
0.6147350800 0.3852649200 0.3855466300
0.1352649200 0.6352649200 0.6355466300
0.3852649200 0.3852649200 0.6144533700
0.1352649200 0.8647350800 0.8644533700
