Generated by pymatgen
1.0
-5.9013158035 0.0000000000 -0.0110825992
-0.0085518561 5.9051957389 -0.0160011078
0.0000000000 0.0000000000 -8.4124122900
Mg Fe O
4 8 16
Direct
0.4999782700 0.5001062000 0.5000083700
0.5000217300 0.9998938000 0.2499916300
0.9999782700 0.0001062000 0.0000083700
0.0000217300 0.4998938000 0.7499916300
0.0000000000 0.2500000000 0.3750000000
0.0000000000 0.7500000000 0.3750000000
0.7500000000 0.0000000000 0.6250000000
0.7500000000 0.5000000000 0.1250000000
0.5000000000 0.7500000000 0.8750000000
0.5000000000 0.2500000000 0.8750000000
0.2500000000 0.5000000000 0.1250000000
0.2500000000 0.0000000000 0.6250000000
0.7732443800 0.9999945800 0.3866970300
0.7732983900 0.5007525900 0.3627816500
0.0000220300 0.2729316800 0.1369789700
0.9999574600 0.7264005700 0.1370769900
0.9999779700 0.2270683200 0.6130210300
0.0000425400 0.7735994300 0.6129230100
0.2267556200 0.5000054200 0.3633029700
0.2267016100 0.9992474100 0.3872183500
0.2732443800 0.4999945800 0.8866970300
0.2732983900 0.0007525900 0.8627816500
0.5000220300 0.7729316800 0.6369789700
0.4999574600 0.2264005800 0.6370769900
0.4999779700 0.7270683200 0.1130210400
0.5000425400 0.2735994300 0.1129230100
0.7267556200 0.0000054200 0.8633029700
0.7267016100 0.4992474100 0.8872183500
